db/data/2036313979113643224126396482867731470.z3.out
-------------------
2500.111256600
